c FILE /home/rafael/Documents/HappySet/MIHS/inputs/happygen/output/graph_d_regular_k4_p0.1_v100_20241127_084024.txt
c SOURCE This is a d-regular graph formed for the happy graph colouring problem.
c DESCRIPTION It was generated using the problem generator of Rhyd Lewis
c
c GRAPH STATS
c Seed                             = -2039076103
c Number of Nodes                  = 100
c Number of colours k              = 4
c Number of pre-assignments        = 10
c Degree of all vertices           = 6
c Density                          = 0.0606061
c 
c The degrees of nodes 1 to 100, respectively, are as follows 
c [6, 6, 6, 6, 6, 6, 6, 6, 6, 6, 6, 6, 6, 6, 6, 6, 6, 6, 6, 6, 6, 6, 6, 6, 6, 6, 
c  6, 6, 6, 6, 6, 6, 6, 6, 6, 6, 6, 6, 6, 6, 6, 6, 6, 6, 6, 6, 6, 6, 6, 6, 6, 
c  6, 6, 6, 6, 6, 6, 6, 6, 6, 6, 6, 6, 6, 6, 6, 6, 6, 6, 6, 6, 6, 6, 6, 6, 6, 
c  6, 6, 6, 6, 6, 6, 6, 6, 6, 6, 6, 6, 6, 6, 6, 6, 6, 6, 6, 6, 6, 6, 6, 6] 
c  
p edge 100 300 4
e 1 18
e 1 45
e 1 70
e 1 71
e 1 82
e 1 94
e 2 7
e 2 11
e 2 12
e 2 19
e 2 52
e 2 76
e 3 7
e 3 9
e 3 18
e 3 39
e 3 70
e 3 79
e 4 21
e 4 22
e 4 31
e 4 40
e 4 51
e 4 88
e 5 13
e 5 23
e 5 32
e 5 48
e 5 73
e 5 77
e 6 27
e 6 50
e 6 54
e 6 58
e 6 60
e 6 82
e 7 40
e 7 82
e 7 99
e 7 100
e 8 13
e 8 45
e 8 69
e 8 74
e 8 91
e 8 100
e 9 34
e 9 46
e 9 50
e 9 81
e 9 98
e 10 53
e 10 59
e 10 67
e 10 82
e 10 85
e 10 89
e 11 24
e 11 41
e 11 46
e 11 69
e 11 87
e 12 24
e 12 35
e 12 66
e 12 75
e 12 86
e 13 17
e 13 70
e 13 81
e 13 99
e 14 21
e 14 32
e 14 40
e 14 54
e 14 62
e 14 92
e 15 55
e 15 67
e 15 83
e 15 95
e 15 98
e 15 100
e 16 28
e 16 43
e 16 44
e 16 51
e 16 60
e 16 94
e 17 26
e 17 35
e 17 36
e 17 61
e 17 63
e 18 33
e 18 38
e 18 45
e 18 58
e 19 29
e 19 43
e 19 68
e 19 92
e 19 94
e 20 28
e 20 43
e 20 47
e 20 53
e 20 60
e 20 89
e 21 39
e 21 73
e 21 79
e 21 85
e 22 35
e 22 44
e 22 65
e 22 71
e 22 77
e 23 27
e 23 28
e 23 62
e 23 79
e 23 84
e 24 45
e 24 51
e 24 55
e 24 57
e 25 44
e 25 51
e 25 56
e 25 62
e 25 67
e 25 86
e 26 46
e 26 54
e 26 64
e 26 78
e 26 98
e 27 59
e 27 73
e 27 79
e 27 96
e 28 32
e 28 53
e 28 98
e 29 41
e 29 74
e 29 76
e 29 89
e 29 93
e 30 47
e 30 49
e 30 50
e 30 72
e 30 78
e 30 87
e 31 34
e 31 35
e 31 41
e 31 43
e 31 56
e 32 61
e 32 77
e 32 95
e 33 66
e 33 70
e 33 88
e 33 95
e 33 97
e 34 57
e 34 63
e 34 64
e 34 74
e 35 39
e 35 82
e 36 47
e 36 50
e 36 74
e 36 92
e 36 96
e 37 53
e 37 59
e 37 83
e 37 93
e 37 95
e 37 96
e 38 48
e 38 50
e 38 76
e 38 88
e 38 90
e 39 40
e 39 65
e 39 90
e 40 53
e 40 89
e 41 54
e 41 58
e 41 96
e 42 56
e 42 65
e 42 69
e 42 87
e 42 97
e 42 99
e 43 46
e 43 80
e 44 47
e 44 59
e 44 72
e 45 49
e 45 59
e 46 61
e 46 76
e 47 62
e 47 99
e 48 57
e 48 61
e 48 84
e 48 94
e 49 56
e 49 57
e 49 63
e 49 67
e 50 68
e 51 58
e 51 78
e 52 66
e 52 75
e 52 76
e 52 78
e 52 81
e 53 87
e 54 74
e 54 84
e 55 63
e 55 65
e 55 71
e 55 82
e 56 60
e 56 66
e 57 72
e 57 85
e 58 60
e 58 93
e 59 73
e 60 77
e 61 68
e 61 100
e 62 64
e 62 93
e 63 93
e 63 96
e 64 68
e 64 73
e 64 91
e 65 70
e 65 94
e 66 80
e 66 87
e 67 77
e 67 94
e 68 80
e 68 95
e 69 71
e 69 72
e 69 97
e 70 90
e 71 84
e 71 91
e 72 80
e 72 91
e 73 97
e 74 86
e 75 76
e 75 77
e 75 85
e 75 91
e 78 86
e 78 96
e 79 83
e 79 90
e 80 86
e 80 90
e 81 89
e 81 97
e 81 98
e 83 88
e 83 90
e 83 92
e 84 89
e 84 98
e 85 86
e 85 99
e 87 100
e 88 91
e 88 95
e 92 93
e 92 99
e 97 100
n 4 1
n 9 1
n 10 4
n 16 4
n 18 4
n 28 4
n 42 4
n 48 2
n 49 3
n 58 4
